3728478182889973259503,11,1,2,015,9,1,2,08,8,1,2,03,11,1,2,08,11,1,2,05,10,1,2,07,2,1,2,08,8,1,2,04,10,1,2,015,12,1,2,03,6,1,2,07,12,1,2,015,5,1,2,06,13,1,2,08,15,1,2,08,10,1,2,014,12,1,2,013,15,1,2,07,4,1,2,07,14,1,2,011,6,1,2,011,9,1,2,06,8,1,2,013,4,1,2,09,15,1,2,010,4,1,2,09,14,1,2,04,10,1,2,011,6,1,2,04,14,1,2,01,4,1,2,012,14,1,2,01,14,1,2,06,5,1,2,010,13,1,2,013,9,1,2,05,14,1,2,013,2,1,2,011,8,1,2,010,4,1,2,09,5,1,2,012,3,1,2,08,4,1,2,09,12,1,2,011,1,1,2,013,1,1,2,05,4,1,2,07,7,1,2,02,6,1,2,04,8,1,2,0